NAME : in_house_8_18
TYPE : TSP
DIMENSION : 8
EDGE_WEIGHT_TYPE : EXPLICIT
EDGE_WEIGHT_FORMAT : UPPER_ROW
COMMENT : INVERSION_SHIFT=8
EDGE_WEIGHT_SECTION
3
2
61
59
46
5
14
57
10
63
22
25
48
53
19
12
37
61
53
29
1
34
38
56
34
21
27
52
